data/lp_files/q3/37_1.lp
\ Model foo
\ LP format - for model browsing. Use MPS format to capture full model detail.
Minimize
  z
Subject To
 allocateEach[1]: x[1,1] + x[2,1] = 1
 allocateEach[2]: x[1,2] + x[2,2] = 1
 allocateEach[3]: x[1,3] + x[2,3] = 1
 allocateEach[4]: x[1,4] + x[2,4] = 1
 allocateEach[5]: x[1,5] + x[2,5] = 1
 allocateEach[6]: x[1,6] + x[2,6] = 1
 allocateEach[7]: x[1,7] + x[2,7] = 1
 allocateEach[8]: x[1,8] + x[2,8] = 1
 allocateEach[9]: x[1,9] + x[2,9] = 1
 allocateEach[10]: x[1,10] + x[2,10] = 1
 allocateEach[11]: x[1,11] + x[2,11] = 1
 allocateEach[12]: x[1,12] + x[2,12] = 1
 allocateEach[13]: x[1,13] + x[2,13] = 1
 allocateEach[14]: x[1,14] + x[2,14] = 1
 allocateEach[15]: x[1,15] + x[2,15] = 1
 allocateEach[16]: x[1,16] + x[2,16] = 1
 allocateEach[17]: x[1,17] + x[2,17] = 1
 allocateAllCash: cashProportion[1] + cashProportion[2] = 1
 findWorstP[1,2]: z + 0.0107004515590558 cashProportion[1]
   - 0.0107004515590558 cashProportion[2] + 0.0265157189633403 x[1,1]
   + 0.0206518715089777 x[1,2] + 0.0769897489674064 x[1,3]
   + 0.0110214651058275 x[1,4] + 0.039698675284097 x[1,5]
   + 0.1067477047531406 x[1,6] + 0.0862884413722259 x[1,7]
   + 0.000877437 x[1,8] + 0.00548933164979562 x[1,9]
   + 0.0243007254906157 x[1,10] + 0.0874119887859268 x[1,11]
   + 0.0759197038115009 x[1,12] + 0.1001562265927622 x[1,13]
   + 0.1010443640721639 x[1,14] + 0.0990219787275023 x[1,15]
   + 0.0839450424807927 x[1,16] + 0.0432191238470263 x[1,17]
   - 0.0265157189633403 x[2,1] - 0.0206518715089777 x[2,2]
   - 0.0769897489674064 x[2,3] - 0.0110214651058275 x[2,4]
   - 0.039698675284097 x[2,5] - 0.1067477047531406 x[2,6]
   - 0.0862884413722259 x[2,7] - 0.000877437 x[2,8]
   - 0.00548933164979562 x[2,9] - 0.0243007254906157 x[2,10]
   - 0.0874119887859268 x[2,11] - 0.0759197038115009 x[2,12]
   - 0.1001562265927622 x[2,13] - 0.1010443640721639 x[2,14]
   - 0.0990219787275023 x[2,15] - 0.0839450424807927 x[2,16]
   - 0.0432191238470263 x[2,17] >= 0
 findWorstP[2,1]: z - 0.0121282685683792 cashProportion[1]
   + 0.0121282685683792 cashProportion[2] - 0.0523456071411245 x[1,1]
   - 0.0968078397128026 x[1,2] - 0.0632731771212342 x[1,3]
   - 0.0499684665017222 x[1,4] - 0.1044486489108815 x[1,5]
   - 0.0417455004123611 x[1,6] - 0.0462450880512298 x[1,7]
   - 0.0735700771357881 x[1,8] - 0.0775724057633532 x[1,9]
   - 0.0534250230437103 x[1,10] - 0.1133386697715034 x[1,11]
   - 0.023892689079707 x[1,12] - 0.0514238587299277 x[1,13]
   - 0.0667054771260855 x[1,14] - 0.025044874593703 x[1,15]
   - 0.0288046378499006 x[1,16] - 0.0192596904865861 x[1,17]
   + 0.0523456071411245 x[2,1] + 0.0968078397128026 x[2,2]
   + 0.0632731771212342 x[2,3] + 0.0499684665017222 x[2,4]
   + 0.1044486489108815 x[2,5] + 0.0417455004123611 x[2,6]
   + 0.0462450880512298 x[2,7] + 0.0735700771357881 x[2,8]
   + 0.0775724057633532 x[2,9] + 0.0534250230437103 x[2,10]
   + 0.1133386697715034 x[2,11] + 0.023892689079707 x[2,12]
   + 0.0514238587299277 x[2,13] + 0.0667054771260855 x[2,14]
   + 0.025044874593703 x[2,15] + 0.0288046378499006 x[2,16]
   + 0.0192596904865861 x[2,17] >= 0
Bounds
 z <= 1
 -infinity <= cashProportion[1] <= 1
 -infinity <= cashProportion[2] <= 1
Binaries
 x[1,1] x[1,2] x[1,3] x[1,4] x[1,5] x[1,6] x[1,7] x[1,8] x[1,9] x[1,10]
 x[1,11] x[1,12] x[1,13] x[1,14] x[1,15] x[1,16] x[1,17] x[2,1] x[2,2]
 x[2,3] x[2,4] x[2,5] x[2,6] x[2,7] x[2,8] x[2,9] x[2,10] x[2,11] x[2,12]
 x[2,13] x[2,14] x[2,15] x[2,16] x[2,17]
End
