data/mps_files/q3/37_1.mps
NAME foo
ROWS
 N  OBJ
 E  allocateEach[1]
 E  allocateEach[2]
 E  allocateEach[3]
 E  allocateEach[4]
 E  allocateEach[5]
 E  allocateEach[6]
 E  allocateEach[7]
 E  allocateEach[8]
 E  allocateEach[9]
 E  allocateEach[10]
 E  allocateEach[11]
 E  allocateEach[12]
 E  allocateEach[13]
 E  allocateEach[14]
 E  allocateEach[15]
 E  allocateEach[16]
 E  allocateEach[17]
 E  allocateAllCash
 G  findWorstP[1,2]
 G  findWorstP[2,1]
COLUMNS
    z         OBJ       1
    z         findWorstP[1,2]  1
    z         findWorstP[2,1]  1
    cashProportion[1]  allocateAllCash  1
    cashProportion[1]  findWorstP[1,2]  1.0700451559055794e-02
    cashProportion[1]  findWorstP[2,1]  -1.2128268568379182e-02
    cashProportion[2]  allocateAllCash  1
    cashProportion[2]  findWorstP[1,2]  -1.0700451559055794e-02
    cashProportion[2]  findWorstP[2,1]  1.2128268568379182e-02
    MARKER    'MARKER'                 'INTORG'
    x[1,1]    allocateEach[1]  1
    x[1,1]    findWorstP[1,2]  2.6515718963340255e-02
    x[1,1]    findWorstP[2,1]  -5.2345607141124538e-02
    x[1,2]    allocateEach[2]  1
    x[1,2]    findWorstP[1,2]  2.0651871508977682e-02
    x[1,2]    findWorstP[2,1]  -9.6807839712802615e-02
    x[1,3]    allocateEach[3]  1
    x[1,3]    findWorstP[1,2]  7.6989748967406429e-02
    x[1,3]    findWorstP[2,1]  -6.3273177121234189e-02
    x[1,4]    allocateEach[4]  1
    x[1,4]    findWorstP[1,2]  1.1021465105827466e-02
    x[1,4]    findWorstP[2,1]  -4.9968466501722222e-02
    x[1,5]    allocateEach[5]  1
    x[1,5]    findWorstP[1,2]  3.9698675284096992e-02
    x[1,5]    findWorstP[2,1]  -1.0444864891088150e-01
    x[1,6]    allocateEach[6]  1
    x[1,6]    findWorstP[1,2]  1.0674770475314059e-01
    x[1,6]    findWorstP[2,1]  -4.1745500412361136e-02
    x[1,7]    allocateEach[7]  1
    x[1,7]    findWorstP[1,2]  8.6288441372225910e-02
    x[1,7]    findWorstP[2,1]  -4.6245088051229809e-02
    x[1,8]    allocateEach[8]  1
    x[1,8]    findWorstP[1,2]  8.7743702784257515e-04
    x[1,8]    findWorstP[2,1]  -7.3570077135788114e-02
    x[1,9]    allocateEach[9]  1
    x[1,9]    findWorstP[1,2]  5.4893316497956219e-03
    x[1,9]    findWorstP[2,1]  -7.7572405763353225e-02
    x[1,10]   allocateEach[10]  1
    x[1,10]   findWorstP[1,2]  2.4300725490615706e-02
    x[1,10]   findWorstP[2,1]  -5.3425023043710287e-02
    x[1,11]   allocateEach[11]  1
    x[1,11]   findWorstP[1,2]  8.7411988785926764e-02
    x[1,11]   findWorstP[2,1]  -1.1333866977150343e-01
    x[1,12]   allocateEach[12]  1
    x[1,12]   findWorstP[1,2]  7.5919703811500858e-02
    x[1,12]   findWorstP[2,1]  -2.3892689079706986e-02
    x[1,13]   allocateEach[13]  1
    x[1,13]   findWorstP[1,2]  1.0015622659276223e-01
    x[1,13]   findWorstP[2,1]  -5.1423858729927725e-02
    x[1,14]   allocateEach[14]  1
    x[1,14]   findWorstP[1,2]  1.0104436407216386e-01
    x[1,14]   findWorstP[2,1]  -0.0667054771260855
    x[1,15]   allocateEach[15]  1
    x[1,15]   findWorstP[1,2]  0.0990219787275023
    x[1,15]   findWorstP[2,1]  -2.5044874593703005e-02
    x[1,16]   allocateEach[16]  1
    x[1,16]   findWorstP[1,2]  0.0839450424807927
    x[1,16]   findWorstP[2,1]  -2.8804637849900550e-02
    x[1,17]   allocateEach[17]  1
    x[1,17]   findWorstP[1,2]  4.3219123847026343e-02
    x[1,17]   findWorstP[2,1]  -1.9259690486586139e-02
    x[2,1]    allocateEach[1]  1
    x[2,1]    findWorstP[1,2]  -2.6515718963340255e-02
    x[2,1]    findWorstP[2,1]  5.2345607141124538e-02
    x[2,2]    allocateEach[2]  1
    x[2,2]    findWorstP[1,2]  -2.0651871508977682e-02
    x[2,2]    findWorstP[2,1]  9.6807839712802615e-02
    x[2,3]    allocateEach[3]  1
    x[2,3]    findWorstP[1,2]  -7.6989748967406429e-02
    x[2,3]    findWorstP[2,1]  6.3273177121234189e-02
    x[2,4]    allocateEach[4]  1
    x[2,4]    findWorstP[1,2]  -1.1021465105827466e-02
    x[2,4]    findWorstP[2,1]  4.9968466501722222e-02
    x[2,5]    allocateEach[5]  1
    x[2,5]    findWorstP[1,2]  -3.9698675284096992e-02
    x[2,5]    findWorstP[2,1]  1.0444864891088150e-01
    x[2,6]    allocateEach[6]  1
    x[2,6]    findWorstP[1,2]  -1.0674770475314059e-01
    x[2,6]    findWorstP[2,1]  4.1745500412361136e-02
    x[2,7]    allocateEach[7]  1
    x[2,7]    findWorstP[1,2]  -8.6288441372225910e-02
    x[2,7]    findWorstP[2,1]  4.6245088051229809e-02
    x[2,8]    allocateEach[8]  1
    x[2,8]    findWorstP[1,2]  -8.7743702784257515e-04
    x[2,8]    findWorstP[2,1]  7.3570077135788114e-02
    x[2,9]    allocateEach[9]  1
    x[2,9]    findWorstP[1,2]  -5.4893316497956219e-03
    x[2,9]    findWorstP[2,1]  7.7572405763353225e-02
    x[2,10]   allocateEach[10]  1
    x[2,10]   findWorstP[1,2]  -2.4300725490615706e-02
    x[2,10]   findWorstP[2,1]  5.3425023043710287e-02
    x[2,11]   allocateEach[11]  1
    x[2,11]   findWorstP[1,2]  -8.7411988785926764e-02
    x[2,11]   findWorstP[2,1]  1.1333866977150343e-01
    x[2,12]   allocateEach[12]  1
    x[2,12]   findWorstP[1,2]  -7.5919703811500858e-02
    x[2,12]   findWorstP[2,1]  2.3892689079706986e-02
    x[2,13]   allocateEach[13]  1
    x[2,13]   findWorstP[1,2]  -1.0015622659276223e-01
    x[2,13]   findWorstP[2,1]  5.1423858729927725e-02
    x[2,14]   allocateEach[14]  1
    x[2,14]   findWorstP[1,2]  -1.0104436407216386e-01
    x[2,14]   findWorstP[2,1]  0.0667054771260855
    x[2,15]   allocateEach[15]  1
    x[2,15]   findWorstP[1,2]  -0.0990219787275023
    x[2,15]   findWorstP[2,1]  2.5044874593703005e-02
    x[2,16]   allocateEach[16]  1
    x[2,16]   findWorstP[1,2]  -0.0839450424807927
    x[2,16]   findWorstP[2,1]  2.8804637849900550e-02
    x[2,17]   allocateEach[17]  1
    x[2,17]   findWorstP[1,2]  -4.3219123847026343e-02
    x[2,17]   findWorstP[2,1]  1.9259690486586139e-02
    MARKER    'MARKER'                 'INTEND'
RHS
    RHS1      allocateEach[1]  1
    RHS1      allocateEach[2]  1
    RHS1      allocateEach[3]  1
    RHS1      allocateEach[4]  1
    RHS1      allocateEach[5]  1
    RHS1      allocateEach[6]  1
    RHS1      allocateEach[7]  1
    RHS1      allocateEach[8]  1
    RHS1      allocateEach[9]  1
    RHS1      allocateEach[10]  1
    RHS1      allocateEach[11]  1
    RHS1      allocateEach[12]  1
    RHS1      allocateEach[13]  1
    RHS1      allocateEach[14]  1
    RHS1      allocateEach[15]  1
    RHS1      allocateEach[16]  1
    RHS1      allocateEach[17]  1
    RHS1      allocateAllCash  1
BOUNDS
 UP BND1      z         1
 MI BND1      cashProportion[1]
 UP BND1      cashProportion[1]  1
 MI BND1      cashProportion[2]
 UP BND1      cashProportion[2]  1
 BV BND1      x[1,1]  
 BV BND1      x[1,2]  
 BV BND1      x[1,3]  
 BV BND1      x[1,4]  
 BV BND1      x[1,5]  
 BV BND1      x[1,6]  
 BV BND1      x[1,7]  
 BV BND1      x[1,8]  
 BV BND1      x[1,9]  
 BV BND1      x[1,10] 
 BV BND1      x[1,11] 
 BV BND1      x[1,12] 
 BV BND1      x[1,13] 
 BV BND1      x[1,14] 
 BV BND1      x[1,15] 
 BV BND1      x[1,16] 
 BV BND1      x[1,17] 
 BV BND1      x[2,1]  
 BV BND1      x[2,2]  
 BV BND1      x[2,3]  
 BV BND1      x[2,4]  
 BV BND1      x[2,5]  
 BV BND1      x[2,6]  
 BV BND1      x[2,7]  
 BV BND1      x[2,8]  
 BV BND1      x[2,9]  
 BV BND1      x[2,10] 
 BV BND1      x[2,11] 
 BV BND1      x[2,12] 
 BV BND1      x[2,13] 
 BV BND1      x[2,14] 
 BV BND1      x[2,15] 
 BV BND1      x[2,16] 
 BV BND1      x[2,17] 
ENDATA
